Function: get_partitions took 1.430511474609375e-05 seconds
Function: map_flows_partitions took 1.5974044799804688e-05 seconds
Building model with:
21 devices, 1 partitions and 20 flows
Using license file /home/anup/gurobi.lic
Academic license - for non-commercial use only
Function: MIP.add_frac_mem_var took 0.0003390312194824219 seconds
Function: MIP.add_coverage_constraints took 0.00047898292541503906 seconds
Function: MIP.add_accuracy_constraints took 0.0004413127899169922 seconds
Function: MIP.add_capacity_constraints took 0.0032892227172851562 seconds
Changed value of parameter TimeLimit to 120.0
   Prev: inf  Min: 0.0  Max: inf  Default: inf
--------------------------------------------------
Starting model update
Model update took: 0.00024175643920898438 s
--------------------------------------------------
Starting model optimize
Gurobi Optimizer version 9.0.0 build v9.0.0rc2 (linux64)
Optimize a model with 85 rows, 90 columns and 230 nonzeros
Model fingerprint: 0x6690b40a
Model has 4 general constraints
Variable types: 69 continuous, 21 integer (21 binary)
Coefficient statistics:
  Matrix range     [1e+00, 5e+00]
  Objective range  [1e+00, 1e+00]
  Bounds range     [1e+00, 3e+04]
  RHS range        [1e+00, 1e+00]

---------------------------------------------------------------------------
Multi-objectives: starting optimization with 8 objectives ... 
---------------------------------------------------------------------------

Multi-objectives: applying initial presolve ...
---------------------------------------------------------------------------

Presolve added 0 rows and 17 columns
Presolve removed 23 rows and 0 columns
Presolve time: 0.00s
Presolved: 62 rows and 107 columns
---------------------------------------------------------------------------

Multi-objectives: optimize objective 1 (tot_rows_CPU) ...
---------------------------------------------------------------------------

Presolve removed 0 rows and 4 columns
Presolve time: 0.00s
Presolved: 62 rows, 103 columns, 220 nonzeros
Presolved model has 40 SOS constraint(s)
Variable types: 42 continuous, 61 integer (61 binary)

Root relaxation: objective 0.000000e+00, 21 iterations, 0.00 seconds

    Nodes    |    Current Node    |     Objective Bounds      |     Work
 Expl Unexpl |  Obj  Depth IntInf | Incumbent    BestBd   Gap | It/Node Time

     0     0    0.00000    0    1          -    0.00000      -     -    0s
H    0     0                       0.0000000    0.00000  0.00%     -    0s
     0     0    0.00000    0    1    0.00000    0.00000  0.00%     -    0s

Explored 1 nodes (21 simplex iterations) in 0.01 seconds
Thread count was 8 (of 8 available processors)

Solution count 1: 0 

Optimal solution found (tolerance 1.00e-04)
Best objective 0.000000000000e+00, best bound 0.000000000000e+00, gap 0.0000%
---------------------------------------------------------------------------

Multi-objectives: optimize objective 2 (CPU_rows_load) ...
---------------------------------------------------------------------------


Loaded user MIP start with objective 0


Explored 0 nodes (0 simplex iterations) in 0.01 seconds
Thread count was 1 (of 8 available processors)

Solution count 1: 0 

Optimal solution found (tolerance 1.00e-04)
Best objective 0.000000000000e+00, best bound 0.000000000000e+00, gap 0.0000%
---------------------------------------------------------------------------

Multi-objectives: optimize objective 3 (tot_rows_P4) ...
---------------------------------------------------------------------------


Loaded user MIP start with objective 33

Presolve removed 2 rows and 5 columns
Presolve time: 0.00s
Presolved: 62 rows, 102 columns, 200 nonzeros
Presolved model has 40 SOS constraint(s)
Variable types: 42 continuous, 60 integer (60 binary)

Root relaxation: objective 3.000000e+01, 21 iterations, 0.00 seconds

    Nodes    |    Current Node    |     Objective Bounds      |     Work
 Expl Unexpl |  Obj  Depth IntInf | Incumbent    BestBd   Gap | It/Node Time

     0     0   30.00000    0    2   33.00000   30.00000  9.09%     -    0s
H    0     0                      30.0000000   30.00000  0.00%     -    0s
     0     0   30.00000    0    2   30.00000   30.00000  0.00%     -    0s

Explored 1 nodes (21 simplex iterations) in 0.01 seconds
Thread count was 8 (of 8 available processors)

Solution count 2: 30 33 

Optimal solution found (tolerance 1.00e-04)
Best objective 3.000000000000e+01, best bound 3.000000000000e+01, gap 0.0000%
---------------------------------------------------------------------------

Multi-objectives: optimize objective 4 (P4_rows_load) ...
---------------------------------------------------------------------------


Loaded user MIP start with objective 3

Presolve removed 2 rows and 5 columns
Presolve time: 0.00s
Presolved: 63 rows, 102 columns, 220 nonzeros
Presolved model has 40 SOS constraint(s)
Variable types: 42 continuous, 60 integer (60 binary)

Explored 0 nodes (0 simplex iterations) in 0.01 seconds
Thread count was 8 (of 8 available processors)

Solution count 1: 3 

Optimal solution found (tolerance 1.00e-04)
Best objective 3.000000000000e+00, best bound 3.000000000000e+00, gap 0.0000%
---------------------------------------------------------------------------

Multi-objectives: optimize objective 5 (tot_mem_CPU) ...
---------------------------------------------------------------------------


Loaded user MIP start with objective 0


Explored 0 nodes (0 simplex iterations) in 0.01 seconds
Thread count was 1 (of 8 available processors)

Solution count 1: 0 

Optimal solution found (tolerance 1.00e-04)
Best objective 0.000000000000e+00, best bound 0.000000000000e+00, gap 0.0000%
---------------------------------------------------------------------------

Multi-objectives: optimize objective 6 (CPU_load_mem) ...
---------------------------------------------------------------------------


Loaded user MIP start with objective 0


Explored 0 nodes (0 simplex iterations) in 0.01 seconds
Thread count was 1 (of 8 available processors)

Solution count 1: 0 

Optimal solution found (tolerance 1.00e-04)
Best objective 0.000000000000e+00, best bound 0.000000000000e+00, gap 0.0000%
---------------------------------------------------------------------------

Multi-objectives: optimize objective 7 (tot_mem_P4) ...
---------------------------------------------------------------------------


Loaded user MIP start with objective 50.9766

Presolve removed 5 rows and 26 columns
Presolve time: 0.00s
Presolved: 63 rows, 81 columns, 200 nonzeros
Presolved model has 20 SOS constraint(s)
Variable types: 21 continuous, 60 integer (60 binary)

Root relaxation: cutoff, 34 iterations, 0.00 seconds

    Nodes    |    Current Node    |     Objective Bounds      |     Work
 Expl Unexpl |  Obj  Depth IntInf | Incumbent    BestBd   Gap | It/Node Time

     0     0     cutoff    0        50.97656   50.97656  0.00%     -    0s

Explored 0 nodes (34 simplex iterations) in 0.02 seconds
Thread count was 8 (of 8 available processors)

Solution count 1: 50.9766 

Optimal solution found (tolerance 1.00e-04)
Best objective 5.097656250000e+01, best bound 5.097656250000e+01, gap 0.0000%
---------------------------------------------------------------------------

Multi-objectives: optimize objective 8 (P4_load_mem) ...
---------------------------------------------------------------------------


Loaded user MIP start with objective 5.09766

Presolve removed 6 rows and 26 columns
Presolve time: 0.00s
Presolved: 63 rows, 81 columns, 200 nonzeros
Presolved model has 20 SOS constraint(s)
Variable types: 21 continuous, 60 integer (60 binary)

Explored 0 nodes (0 simplex iterations) in 0.02 seconds
Thread count was 8 (of 8 available processors)

Solution count 1: 5.09766 

Optimal solution found (tolerance 1.00e-04)
Best objective 5.097656250000e+00, best bound 5.097656250000e+00, gap 0.0000%

---------------------------------------------------------------------------
Multi-objectives: solved in 0.02 seconds, solution count 2

Model optimize took: 0.020563840866088867 seconds
--------------------------------------------------

Solution quality statistics for model UnivmonGreedyRows :
  Maximum violation:
    Bound       : 0.00000000e+00
    Constraint  : 0.00000000e+00
    Integrality : 0.00000000e+00

Sketch (0) (cm: eps0: 0.00625, del0: 0.05, min_mem: 1.69921875)
Par: 1, Rows: 3
(-0.000,18)    (1.000,3)    (-0.000,8)    (-0.000,14)    (1.000,19)    (-0.000,4)    (1.000,9)    (1.000,15)    (0.000,20)    (1.000,5)    (-0.000,10)    (-0.000,0)    (-0.000,6)    (1.000,11)    (-0.000,16)    (1.000,1)    (1.000,7)    (-0.000,12)    (1.000,17)    (-0.000,2)    (1.000,13)    
Total frac: 10.000

Device (0) P4_0:
Rows total: 0.0
Mem total: 0.0

Device (1) P4_1:
Rows total: 3.0
Mem total: 5.09765625

Device (2) P4_2:
Rows total: 0.0
Mem total: 0.0

Device (3) P4_3:
Rows total: 3.0
Mem total: 5.09765625

Device (4) P4_4:
Rows total: 0.0
Mem total: 0.0

Device (5) P4_5:
Rows total: 3.0
Mem total: 5.09765625

Device (6) P4_6:
Rows total: 0.0
Mem total: 0.0

Device (7) P4_7:
Rows total: 3.0
Mem total: 5.09765625

Device (8) P4_8:
Rows total: 0.0
Mem total: 0.0

Device (9) P4_9:
Rows total: 3.0
Mem total: 5.09765625

Device (10) P4_10:
Rows total: 0.0
Mem total: 0.0

Device (11) P4_11:
Rows total: 3.0
Mem total: 5.09765625

Device (12) P4_12:
Rows total: 0.0
Mem total: 0.0

Device (13) P4_13:
Rows total: 3.0
Mem total: 5.09765625

Device (14) P4_14:
Rows total: 0.0
Mem total: 0.0

Device (15) P4_15:
Rows total: 3.0
Mem total: 5.09765625

Device (16) P4_16:
Rows total: 0.0
Mem total: 0.0

Device (17) P4_17:
Rows total: 3.0
Mem total: 5.09765625

Device (18) P4_18:
Rows total: 0.0
Mem total: 0.0

Device (19) P4_19:
Rows total: 3.0
Mem total: 5.09765625

Device (20) CPU_1:
Rows total: 0.0
Mem total: 0.0
--------------------------------------------------
Changed value of parameter NonConvex to 2
   Prev: -1  Min: -1  Max: 2  Default: -1

Throughput: 97.99999999999999 Mpps, ns per packet: 10.204081632653063
Resources: 78.56201171874973
Used Cores: 6.999999999999973, Total CPUS: 1, Switch Memory: 50.9765625

Sketch (0) (cm: eps0: 0.00625, del0: 0.05, min_mem: 1.69921875)
Par: 1, Rows: 3
(-0.000,18)    (1.000,3)    (-0.000,8)    (-0.000,14)    (1.000,19)    (-0.000,4)    (1.000,9)    (1.000,15)    (0.000,20)    (1.000,5)    (-0.000,10)    (-0.000,0)    (-0.000,6)    (1.000,11)    (-0.000,16)    (1.000,1)    (1.000,7)    (-0.000,12)    (1.000,17)    (-0.000,2)    (1.000,13)    
Total frac: 10.000

Device (0) P4_0:
Rows total: 0
Mem total: 0.0
Throughput: 148.0

Device (1) P4_1:
Rows total: 3.0
Mem total: 5.09765625
Throughput: 148.0

Device (2) P4_2:
Rows total: 0
Mem total: 0.0
Throughput: 148.0

Device (3) P4_3:
Rows total: 3.0
Mem total: 5.09765625
Throughput: 148.0

Device (4) P4_4:
Rows total: 0
Mem total: 0.0
Throughput: 148.0

Device (5) P4_5:
Rows total: 3.0
Mem total: 5.09765625
Throughput: 148.0

Device (6) P4_6:
Rows total: 0
Mem total: 0.0
Throughput: 148.0

Device (7) P4_7:
Rows total: 3.0
Mem total: 5.09765625
Throughput: 148.0

Device (8) P4_8:
Rows total: 0
Mem total: 0.0
Throughput: 148.0

Device (9) P4_9:
Rows total: 3.0
Mem total: 5.09765625
Throughput: 148.0

Device (10) P4_10:
Rows total: 0
Mem total: 0.0
Throughput: 148.0

Device (11) P4_11:
Rows total: 3.0
Mem total: 5.09765625
Throughput: 148.0

Device (12) P4_12:
Rows total: 0
Mem total: 0.0
Throughput: 148.0

Device (13) P4_13:
Rows total: 3.0
Mem total: 5.09765625
Throughput: 148.0

Device (14) P4_14:
Rows total: 0
Mem total: 0.0
Throughput: 148.0

Device (15) P4_15:
Rows total: 3.0
Mem total: 5.09765625
Throughput: 148.0

Device (16) P4_16:
Rows total: 0
Mem total: 0.0
Throughput: 148.0

Device (17) P4_17:
Rows total: 3.0
Mem total: 5.09765625
Throughput: 148.0

Device (18) P4_18:
Rows total: 0
Mem total: 0.0
Throughput: 148.0

Device (19) P4_19:
Rows total: 3.0
Mem total: 5.09765625
Throughput: 148.0

Device (20) CPU_1:
cores_sketch: 0.0, cores_dpdk: 6.999999999999973
Rows total: 0
Mem total: 0.0
Throughput: 97.99999999999999
--------------------------------------------------
Function: MIP.solve took 0.04896712303161621 seconds
Function: solve took 0.04937481880187988 seconds
